decision_x1=[0,2];
decision_x2=[0,2];
decision_x3=[0,2];
decision_x4=[0,2];
decision_x5=[0,2];
decision_x6=[0,2];
decision_x7=[0,2];
decision_x8=[0,2];
decision_x9=[0,2];
decision_x10=[0,2];
random_y1=[0,2];
random_y2=[0,2];
constraint_x2_x1=[
0,0,3.8|
0,1,7.7|
0,2,5.5|
1,0,6.2|
1,1,7|
1,2,0.58|
2,0,5.2|
2,1,9.4|
2,2,7.1|
];
constraint_x4_x1=[
0,0,8.1|
0,1,4.1|
0,2,6.7|
1,0,2.3|
1,1,4.5|
1,2,8.1|
2,0,9.9|
2,1,3.8|
2,2,7.9|
];
constraint_x5_x4=[
0,0,2.8|
0,1,0.61|
0,2,7.6|
1,0,6.5|
1,1,8.5|
1,2,2.7|
2,0,4.2|
2,1,6.4|
2,2,9.9|
];
constraint_x6_x1=[
0,0,5|
0,1,6.7|
0,2,7.7|
1,0,9.3|
1,1,3.7|
1,2,0.41|
2,0,2.7|
2,1,3.9|
2,2,4.9|
];
constraint_x7_x1=[
0,0,9.5|
0,1,9.7|
0,2,4|
1,0,8.1|
1,1,4.3|
1,2,1.6|
2,0,1.4|
2,1,3.9|
2,2,9.9|
];
constraint_x7_x2=[
0,0,2.5|
0,1,1.3|
0,2,8.7|
1,0,3|
1,1,2.2|
1,2,3.5|
2,0,9.5|
2,1,2.3|
2,2,0.28|
];
constraint_x7_x3=[
0,0,4.8|
0,1,5.1|
0,2,5.8|
1,0,2.5|
1,1,0.78|
1,2,7.1|
2,0,9.4|
2,1,6.1|
2,2,6.9|
];
constraint_x8_x1=[
0,0,8.5|
0,1,1.6|
0,2,7.6|
1,0,0.29|
1,1,9.3|
1,2,0.22|
2,0,5.8|
2,1,9.7|
2,2,5.4|
];
constraint_x8_x2=[
0,0,9.5|
0,1,9.4|
0,2,6.9|
1,0,8|
1,1,2.6|
1,2,6.1|
2,0,3.2|
2,1,7|
2,2,5.8|
];
constraint_x8_x3=[
0,0,2.2|
0,1,7.4|
0,2,4.7|
1,0,2|
1,1,9.2|
1,2,3.9|
2,0,3.4|
2,1,4.2|
2,2,8.6|
];
constraint_x8_x4=[
0,0,7.2|
0,1,1.9|
0,2,1.7|
1,0,7.9|
1,1,6.1|
1,2,0.4|
2,0,8.8|
2,1,1.8|
2,2,5.8|
];
constraint_x8_x7=[
0,0,1.1|
0,1,4.8|
0,2,9.7|
1,0,2.5|
1,1,5.5|
1,2,5.5|
2,0,0.73|
2,1,4|
2,2,6.1|
];
constraint_x9_x1=[
0,0,9.8|
0,1,8.1|
0,2,1.7|
1,0,8.2|
1,1,0.45|
1,2,0.94|
2,0,8.7|
2,1,3.1|
2,2,7.5|
];
constraint_x9_x5=[
0,0,8.1|
0,1,3.6|
0,2,9.7|
1,0,7.3|
1,1,7.1|
1,2,4.9|
2,0,2.6|
2,1,1.7|
2,2,9.4|
];
constraint_x9_x6=[
0,0,3.7|
0,1,9.6|
0,2,3.6|
1,0,1.6|
1,1,1.8|
1,2,7.5|
2,0,2.4|
2,1,5.5|
2,2,1.4|
];
constraint_x9_x8=[
0,0,6.1|
0,1,0.83|
0,2,1.4|
1,0,8.6|
1,1,0.48|
1,2,3.7|
2,0,0.68|
2,1,2.6|
2,2,9.3|
];
constraint_x10_x2=[
0,0,7.3|
0,1,9.3|
0,2,4.3|
1,0,1.4|
1,1,8.1|
1,2,8.7|
2,0,3.6|
2,1,8|
2,2,0.014|
];
constraint_x10_x3=[
0,0,8|
0,1,6.5|
0,2,1.2|
1,0,3.4|
1,1,6.1|
1,2,6.5|
2,0,5.3|
2,1,7.9|
2,2,2.9|
];
constraint_x10_x4=[
0,0,0.78|
0,1,6.2|
0,2,4.8|
1,0,9.2|
1,1,3.8|
1,2,3.3|
2,0,3.7|
2,1,4|
2,2,0.41|
];
constraint_x10_x5=[
0,0,1.7|
0,1,2.1|
0,2,0.61|
1,0,10|
1,1,8.1|
1,2,3.6|
2,0,6.6|
2,1,5.7|
2,2,2|
];
constraint_x10_x6=[
0,0,9.9|
0,1,4.1|
0,2,1.1|
1,0,9|
1,1,1.4|
1,2,2.6|
2,0,8.9|
2,1,0.99|
2,2,5|
];
constraint_x10_x7=[
0,0,8.9|
0,1,9.3|
0,2,6.7|
1,0,8.5|
1,1,8.8|
1,2,9.5|
2,0,2.8|
2,1,2.2|
2,2,2.6|
];
constraint_x10_x8=[
0,0,3.6|
0,1,3.6|
0,2,7.7|
1,0,8|
1,1,3.2|
1,2,5.5|
2,0,5.5|
2,1,2.3|
2,2,5.7|
];
constraint_x1_y1=[
0,0,7.8|
0,1,6|
0,2,3.9|
1,0,3.8|
1,1,7|
1,2,0.71|
2,0,8.5|
2,1,9|
2,2,0.68|
];
constraint_x2_y2=[
0,0,7.3|
0,1,6.5|
0,2,4|
1,0,5.9|
1,1,0.19|
1,2,0.23|
2,0,9.3|
2,1,2.9|
2,2,9.9|
];
initial_distribution_y1=[0.22,0.57,0.21];
initial_distribution_y2=[0.39,0.5,0.11];
transition_y1=[
0.081,0.44,0.48|
0.38,0.35,0.27|
0.38,0.37,0.25|
];
transition_y2=[
0.4,0.5,0.1|
0.16,0.51,0.32|
0.33,0.36,0.32|
];
